p cnf 14 64
8 13 14 0
4 -6 -8 0
-9 13 -14 0
-2 -5 -11 0
-7 -11 -13 0
-1 5 -6 0
1 4 8 0
-5 -6 -9 0
-2 -4 7 0
2 -8 -11 0
-4 -8 -14 0
-2 13 -14 0
-5 -6 11 0
2 9 -10 0
6 7 14 0
-4 -6 13 0
1 8 13 0
-4 6 14 0
6 -10 12 0
7 11 -13 0
-4 9 -12 0
2 4 -12 0
-1 8 -13 0
5 7 10 0
3 -4 -5 0
-3 -5 -10 0
-1 6 10 0
-7 11 12 0
-2 3 4 0
-3 -5 8 0
-1 -6 10 0
1 -6 14 0
2 -4 -9 0
2 -3 -14 0
-2 4 -6 0
2 -11 14 0
6 -12 14 0
-11 -12 14 0
-1 -6 9 0
-2 -4 -9 0
4 6 14 0
2 7 -8 0
-3 -6 -8 0
-3 6 7 0
1 10 13 0
-2 -4 10 0
3 -5 12 0
5 -11 12 0
9 -11 12 0
5 12 13 0
-1 -3 14 0
-6 8 -11 0
6 8 -11 0
3 4 -7 0
-4 -7 10 0
-3 -5 -14 0
1 4 -7 0
-1 -9 12 0
2 -10 12 0
2 -11 12 0
-5 -7 9 0
7 -9 14 0
2 6 9 0
1 -3 -7 0
